28 76 3 79 29 24 12 26 53 
99 59 92 98 85 61 16 44 14 42 15 57 2 87 95 94 6 5 83 45 8 46 48 47 36 49 10 90 32 66 20 1 
27 69 71 65 63 64 11 19 62 88 7 82 18 40 21 73 72 56 39 67 23 75 22 41 43 38 86 17 84 60 89 
52 31 70 30 51 9 35 34 78 81 33 50 77 68 80 54 55 25 4 74 58 13 97 37 100 91 93 96 
